results_rootrelaxation/bin012_050_034.srr.sol
solution status: optimal solution found
objective value:                                    0
_var163_                            0.126466535560193 	(obj:0)
_var708_                            0.465069959328895 	(obj:0)
_var725_                            0.379137212462502 	(obj:0)
_var726_                            0.085317547987212 	(obj:0)
_var730_                           0.0810050378330279 	(obj:0)
_var731_                           0.0978363353452498 	(obj:0)
_var736_                            0.187771613704048 	(obj:0)
_var738_                           0.0946903238393311 	(obj:0)
_var743_                            0.175000628794432 	(obj:0)
_var746_                            0.254904426644841 	(obj:0)
_var750_                            0.276257605863492 	(obj:0)
_var753_                           0.0403794791406791 	(obj:0)
_var754_                            0.454051441502745 	(obj:0)
_var755_                            0.197211007777338 	(obj:0)
_var757_                           0.0878408830585116 	(obj:0)
_var760_                            0.297339553753087 	(obj:0)
_var761_                           0.0282026199994709 	(obj:0)
_var763_                           0.0843774153353796 	(obj:0)
_var766_                            0.199450195742008 	(obj:0)
_var767_                            0.153843905350463 	(obj:0)
_var769_                           0.0340351132407781 	(obj:0)
_var770_                            0.527724396340349 	(obj:0)
_var771_                            0.323309103787791 	(obj:0)
_var773_                           0.0476762136922185 	(obj:0)
_var774_                             0.18174266468806 	(obj:0)
_var775_                             0.26748507377968 	(obj:0)
_var778_                            0.156807056637043 	(obj:0)
_var779_                            0.089459433921863 	(obj:0)
_var780_                            0.162052901665388 	(obj:0)
_var782_                            0.119472981892759 	(obj:0)
_var784_                            0.293721776476834 	(obj:0)
_var787_                            0.202443257250341 	(obj:0)
_var788_                            0.208988157591521 	(obj:0)
_var789_                             0.47687701936483 	(obj:0)
_var792_                            0.130877613490596 	(obj:0)
_var793_                            0.029566254200175 	(obj:0)
_var794_                            0.226825526198975 	(obj:0)
_var796_                           0.0982829493382036 	(obj:0)
_var797_                            0.212280321317355 	(obj:0)
_var800_                            0.126255804452409 	(obj:0)
_var801_                           0.0607571772636096 	(obj:0)
_var802_                            0.229182315717344 	(obj:0)
_var803_                            0.256080442181843 	(obj:0)
_var804_                             0.12355028893954 	(obj:0)
_var805_                             0.25977299501247 	(obj:0)
_var806_                            0.293463460925355 	(obj:0)
_var809_                            0.168504672452482 	(obj:0)
_var810_                            0.335351366931122 	(obj:0)
_var811_                           0.0502824816510993 	(obj:0)
_var812_                            0.280640812905445 	(obj:0)
_var816_                            0.191920297416368 	(obj:0)
_var817_                            0.125332666244752 	(obj:0)
_var818_                           0.0716207057588757 	(obj:0)
_var819_                            0.235090264290797 	(obj:0)
_var823_                           0.0558899684515155 	(obj:0)
_var826_                           0.0120714935873167 	(obj:0)
_var827_                           0.0170209555092233 	(obj:0)
_var828_                            0.070014390895328 	(obj:0)
_var829_                           0.0179012677175579 	(obj:0)
_var830_                            0.146928526126239 	(obj:0)
_var832_                           0.0589992719580109 	(obj:0)
_var833_                           0.0359337325441568 	(obj:0)
_var834_                           0.0440407621940223 	(obj:0)
_var835_                            0.007820843209939 	(obj:0)
_var839_                            0.169791491765512 	(obj:0)
